*Heading
Generated from Newmark Task parameters (Sets=False)
*Node
1, 0.000000, 0.000000, 0.0
2, 0.000000, 0.173575, 0.0
3, 0.000000, 0.347150, 0.0
4, 0.000000, 0.520725, 0.0
5, 0.000000, 0.694300, 0.0
6, 0.225000, 0.000000, 0.0
7, 0.225000, 0.173575, 0.0
8, 0.225000, 0.347150, 0.0
9, 0.225000, 0.520725, 0.0
10, 0.225000, 0.694300, 0.0
11, 0.450000, 0.000000, 0.0
12, 0.450000, 0.173575, 0.0
13, 0.450000, 0.347150, 0.0
14, 0.450000, 0.520725, 0.0
15, 0.450000, 0.694300, 0.0
16, 0.675000, 0.000000, 0.0
17, 0.675000, 0.173575, 0.0
18, 0.675000, 0.347150, 0.0
19, 0.675000, 0.520725, 0.0
20, 0.675000, 0.694300, 0.0
21, 0.900000, 0.000000, 0.0
22, 0.900000, 0.173575, 0.0
23, 0.900000, 0.347150, 0.0
24, 0.900000, 0.520725, 0.0
25, 0.900000, 0.694300, 0.0
26, 1.125000, 0.000000, 0.0
27, 1.125000, 0.173575, 0.0
28, 1.125000, 0.347150, 0.0
29, 1.125000, 0.520725, 0.0
30, 1.125000, 0.694300, 0.0
31, 1.350000, 0.000000, 0.0
32, 1.350000, 0.173575, 0.0
33, 1.350000, 0.347150, 0.0
34, 1.350000, 0.520725, 0.0
35, 1.350000, 0.694300, 0.0
36, 1.575000, 0.000000, 0.0
37, 1.575000, 0.173575, 0.0
38, 1.575000, 0.347150, 0.0
39, 1.575000, 0.520725, 0.0
40, 1.575000, 0.694300, 0.0
41, 1.800000, 0.000000, 0.0
42, 1.800000, 0.173575, 0.0
43, 1.800000, 0.347150, 0.0
44, 1.800000, 0.520725, 0.0
45, 1.800000, 0.694300, 0.0
46, 2.025000, 0.000000, 0.0
47, 2.025000, 0.173575, 0.0
48, 2.025000, 0.347150, 0.0
49, 2.025000, 0.520725, 0.0
50, 2.025000, 0.694300, 0.0
51, 2.250000, 0.000000, 0.0
52, 2.250000, 0.173575, 0.0
53, 2.250000, 0.347150, 0.0
54, 2.250000, 0.520725, 0.0
55, 2.250000, 0.694300, 0.0
56, 2.475000, 0.000000, 0.0
57, 2.475000, 0.173575, 0.0
58, 2.475000, 0.347150, 0.0
59, 2.475000, 0.520725, 0.0
60, 2.475000, 0.694300, 0.0
61, 2.700000, 0.000000, 0.0
62, 2.700000, 0.173575, 0.0
63, 2.700000, 0.347150, 0.0
64, 2.700000, 0.520725, 0.0
65, 2.700000, 0.694300, 0.0
66, 2.925000, 0.000000, 0.0
67, 2.925000, 0.173575, 0.0
68, 2.925000, 0.347150, 0.0
69, 2.925000, 0.520725, 0.0
70, 2.925000, 0.694300, 0.0
71, 3.150000, 0.000000, 0.0
72, 3.150000, 0.173575, 0.0
73, 3.150000, 0.347150, 0.0
74, 3.150000, 0.520725, 0.0
75, 3.150000, 0.694300, 0.0
76, 3.375000, 0.000000, 0.0
77, 3.375000, 0.173575, 0.0
78, 3.375000, 0.347150, 0.0
79, 3.375000, 0.520725, 0.0
80, 3.375000, 0.694300, 0.0
81, 3.600000, 0.000000, 0.0
82, 3.600000, 0.173575, 0.0
83, 3.600000, 0.347150, 0.0
84, 3.600000, 0.520725, 0.0
85, 3.600000, 0.694300, 0.0
86, 3.825000, 0.000000, 0.0
87, 3.825000, 0.173575, 0.0
88, 3.825000, 0.347150, 0.0
89, 3.825000, 0.520725, 0.0
90, 3.825000, 0.694300, 0.0
91, 4.050000, 0.000000, 0.0
92, 4.050000, 0.173575, 0.0
93, 4.050000, 0.347150, 0.0
94, 4.050000, 0.520725, 0.0
95, 4.050000, 0.694300, 0.0
96, 4.275000, 0.000000, 0.0
97, 4.275000, 0.173575, 0.0
98, 4.275000, 0.347150, 0.0
99, 4.275000, 0.520725, 0.0
100, 4.275000, 0.694300, 0.0
101, 4.500000, 0.000000, 0.0
102, 4.500000, 0.173575, 0.0
103, 4.500000, 0.347150, 0.0
104, 4.500000, 0.520725, 0.0
105, 4.500000, 0.694300, 0.0
106, 4.725000, 0.000000, 0.0
107, 4.725000, 0.173575, 0.0
108, 4.725000, 0.347150, 0.0
109, 4.725000, 0.520725, 0.0
110, 4.725000, 0.694300, 0.0
111, 4.950000, 0.000000, 0.0
112, 4.950000, 0.173575, 0.0
113, 4.950000, 0.347150, 0.0
114, 4.950000, 0.520725, 0.0
115, 4.950000, 0.694300, 0.0
116, 5.175000, 0.000000, 0.0
117, 5.175000, 0.173575, 0.0
118, 5.175000, 0.347150, 0.0
119, 5.175000, 0.520725, 0.0
120, 5.175000, 0.694300, 0.0
121, 5.400000, 0.000000, 0.0
122, 5.400000, 0.173575, 0.0
123, 5.400000, 0.347150, 0.0
124, 5.400000, 0.520725, 0.0
125, 5.400000, 0.694300, 0.0
126, 5.625000, 0.000000, 0.0
127, 5.625000, 0.173575, 0.0
128, 5.625000, 0.347150, 0.0
129, 5.625000, 0.520725, 0.0
130, 5.625000, 0.694300, 0.0
131, 5.850000, 0.000000, 0.0
132, 5.850000, 0.173575, 0.0
133, 5.850000, 0.347150, 0.0
134, 5.850000, 0.520725, 0.0
135, 5.850000, 0.694300, 0.0
136, 6.075000, 0.000000, 0.0
137, 6.075000, 0.173575, 0.0
138, 6.075000, 0.347150, 0.0
139, 6.075000, 0.520725, 0.0
140, 6.075000, 0.694300, 0.0
141, 6.300000, 0.000000, 0.0
142, 6.300000, 0.173575, 0.0
143, 6.300000, 0.347150, 0.0
144, 6.300000, 0.520725, 0.0
145, 6.300000, 0.694300, 0.0
146, 6.525000, 0.000000, 0.0
147, 6.525000, 0.173575, 0.0
148, 6.525000, 0.347150, 0.0
149, 6.525000, 0.520725, 0.0
150, 6.525000, 0.694300, 0.0
151, 6.750000, 0.000000, 0.0
152, 6.750000, 0.173575, 0.0
153, 6.750000, 0.347150, 0.0
154, 6.750000, 0.520725, 0.0
155, 6.750000, 0.694300, 0.0
156, 6.975000, 0.000000, 0.0
157, 6.975000, 0.173575, 0.0
158, 6.975000, 0.347150, 0.0
159, 6.975000, 0.520725, 0.0
160, 6.975000, 0.694300, 0.0
161, 7.200000, 0.000000, 0.0
162, 7.200000, 0.173575, 0.0
163, 7.200000, 0.347150, 0.0
164, 7.200000, 0.520725, 0.0
165, 7.200000, 0.694300, 0.0
166, 7.425000, 0.000000, 0.0
167, 7.425000, 0.173575, 0.0
168, 7.425000, 0.347150, 0.0
169, 7.425000, 0.520725, 0.0
170, 7.425000, 0.694300, 0.0
171, 7.650000, 0.000000, 0.0
172, 7.650000, 0.173575, 0.0
173, 7.650000, 0.347150, 0.0
174, 7.650000, 0.520725, 0.0
175, 7.650000, 0.694300, 0.0
176, 7.875000, 0.000000, 0.0
177, 7.875000, 0.173575, 0.0
178, 7.875000, 0.347150, 0.0
179, 7.875000, 0.520725, 0.0
180, 7.875000, 0.694300, 0.0
181, 8.100000, 0.000000, 0.0
182, 8.100000, 0.173575, 0.0
183, 8.100000, 0.347150, 0.0
184, 8.100000, 0.520725, 0.0
185, 8.100000, 0.694300, 0.0
186, 8.325000, 0.000000, 0.0
187, 8.325000, 0.173575, 0.0
188, 8.325000, 0.347150, 0.0
189, 8.325000, 0.520725, 0.0
190, 8.325000, 0.694300, 0.0
191, 8.550000, 0.000000, 0.0
192, 8.550000, 0.173575, 0.0
193, 8.550000, 0.347150, 0.0
194, 8.550000, 0.520725, 0.0
195, 8.550000, 0.694300, 0.0
196, 8.775000, 0.000000, 0.0
197, 8.775000, 0.173575, 0.0
198, 8.775000, 0.347150, 0.0
199, 8.775000, 0.520725, 0.0
200, 8.775000, 0.694300, 0.0
201, 9.000000, 0.000000, 0.0
202, 9.000000, 0.173575, 0.0
203, 9.000000, 0.347150, 0.0
204, 9.000000, 0.520725, 0.0
205, 9.000000, 0.694300, 0.0
*Element, type=S8R
1, 1, 11, 13, 3, 6, 12, 8, 2
2, 11, 21, 23, 13, 16, 22, 18, 12
3, 21, 31, 33, 23, 26, 32, 28, 22
4, 31, 41, 43, 33, 36, 42, 38, 32
5, 41, 51, 53, 43, 46, 52, 48, 42
6, 51, 61, 63, 53, 56, 62, 58, 52
7, 61, 71, 73, 63, 66, 72, 68, 62
8, 71, 81, 83, 73, 76, 82, 78, 72
9, 81, 91, 93, 83, 86, 92, 88, 82
10, 91, 101, 103, 93, 96, 102, 98, 92
11, 101, 111, 113, 103, 106, 112, 108, 102
12, 111, 121, 123, 113, 116, 122, 118, 112
13, 121, 131, 133, 123, 126, 132, 128, 122
14, 131, 141, 143, 133, 136, 142, 138, 132
15, 141, 151, 153, 143, 146, 152, 148, 142
16, 151, 161, 163, 153, 156, 162, 158, 152
17, 161, 171, 173, 163, 166, 172, 168, 162
18, 171, 181, 183, 173, 176, 182, 178, 172
19, 181, 191, 193, 183, 186, 192, 188, 182
20, 191, 201, 203, 193, 196, 202, 198, 192
21, 3, 13, 15, 5, 8, 14, 10, 4
22, 13, 23, 25, 15, 18, 24, 20, 14
23, 23, 33, 35, 25, 28, 34, 30, 24
24, 33, 43, 45, 35, 38, 44, 40, 34
25, 43, 53, 55, 45, 48, 54, 50, 44
26, 53, 63, 65, 55, 58, 64, 60, 54
27, 63, 73, 75, 65, 68, 74, 70, 64
28, 73, 83, 85, 75, 78, 84, 80, 74
29, 83, 93, 95, 85, 88, 94, 90, 84
30, 93, 103, 105, 95, 98, 104, 100, 94
31, 103, 113, 115, 105, 108, 114, 110, 104
32, 113, 123, 125, 115, 118, 124, 120, 114
33, 123, 133, 135, 125, 128, 134, 130, 124
34, 133, 143, 145, 135, 138, 144, 140, 134
35, 143, 153, 155, 145, 148, 154, 150, 144
36, 153, 163, 165, 155, 158, 164, 160, 154
37, 163, 173, 175, 165, 168, 174, 170, 164
38, 173, 183, 185, 175, 178, 184, 180, 174
39, 183, 193, 195, 185, 188, 194, 190, 184
40, 193, 203, 205, 195, 198, 204, 200, 194
